<number of tasks>
50

<cycle time>
1000

<order strength>
0.598


<task times>
1 76
2 260
3 174
4 413
5 147
6 55
7 26
8 61
9 141
10 163
11 285
12 293
13 24
14 148
15 31
16 88
17 229
18 138
19 385
20 49
21 84
22 130
23 45
24 154
25 123
26 64
27 151
28 180
29 140
30 217
31 53
32 58
33 148
34 172
35 153
36 284
37 111
38 144
39 109
40 57
41 203
42 37
43 169
44 28
45 67
46 104
47 29
48 97
49 241
50 157

<precedence relations>
1,4
2,5
2,6
2,7
2,10
3,5
3,10
4,8
4,9
4,10
4,11
5,8
5,12
5,13
5,16
6,39
7,11
7,17
7,24
8,28
8,40
9,16
9,17
9,26
10,13
10,15
10,21
11,25
11,28
12,14
12,22
13,22
13,25
14,48
15,18
15,23
15,25
16,19
16,20
17,35
18,22
18,24
18,26
19,23
19,24
19,25
20,21
20,22
20,23
20,34
22,31
23,30
23,32
23,40
24,28
24,29
25,27
25,30
26,27
27,31
27,32
27,33
27,34
28,31
28,32
28,35
28,36
29,33
29,34
30,31
31,37
31,39
33,39
33,40
33,42
36,38
37,42
37,46
37,47
37,50
38,42
38,43
39,41
39,43
39,44
39,49
40,48
41,47
42,48
42,49
43,46
43,48
44,45
44,50

<end>
